<?xml version = "1.0" standalone="yes"?>
<!-- This file has been generated by DOcplex version 2.23.222  -->
<CPLEXSolution version="1.0">
 <header
   problemName="CVRP"
   objectiveValue="19187"
  />
 <variables>
  <variable name="x_0_3" index="2" value="1.00000"/>
  <variable name="x_0_7" index="6" value="1.00000"/>
  <variable name="x_0_10" index="9" value="1.00000"/>
  <variable name="x_0_12" index="11" value="1.00000"/>
  <variable name="x_0_13" index="12" value="1.00000"/>
  <variable name="x_0_14" index="13" value="1.00000"/>
  <variable name="x_0_15" index="14" value="1.00000"/>
  <variable name="x_0_16" index="15" value="1.00000"/>
  <variable name="x_0_17" index="16" value="1.00000"/>
  <variable name="x_0_19" index="18" value="1.00000"/>
  <variable name="x_0_20" index="19" value="1.00000"/>
  <variable name="x_0_21" index="20" value="1.00000"/>
  <variable name="x_0_25" index="24" value="1.00000"/>
  <variable name="x_0_26" index="25" value="1.00000"/>
  <variable name="x_1_0" index="26" value="1.00000"/>
  <variable name="x_2_0" index="52" value="1.00000"/>
  <variable name="x_3_9" index="86" value="1.00000"/>
  <variable name="x_4_0" index="104" value="1.00000"/>
  <variable name="x_5_8" index="137" value="1.00000"/>
  <variable name="x_6_0" index="156" value="1.00000"/>
  <variable name="x_7_0" index="182" value="1.00000"/>
  <variable name="x_8_0" index="208" value="1.00000"/>
  <variable name="x_9_0" index="234" value="1.00000"/>
  <variable name="x_10_4" index="264" value="1.00000"/>
  <variable name="x_11_0" index="286" value="1.00000"/>
  <variable name="x_12_0" index="312" value="1.00000"/>
  <variable name="x_13_0" index="338" value="1.00000"/>
  <variable name="x_14_6" index="370" value="1.00000"/>
  <variable name="x_15_0" index="390" value="1.00000"/>
  <variable name="x_16_23" index="438" value="1.00000"/>
  <variable name="x_17_24" index="465" value="1.00000"/>
  <variable name="x_18_0" index="468" value="1.00000"/>
  <variable name="x_19_22" index="515" value="1.00000"/>
  <variable name="x_20_0" index="520" value="1.00000"/>
  <variable name="x_21_11" index="557" value="1.00000"/>
  <variable name="x_22_5" index="577" value="1.00000"/>
  <variable name="x_23_2" index="600" value="1.00000"/>
  <variable name="x_24_0" index="624" value="1.00000"/>
  <variable name="x_25_1" index="651" value="1.00000"/>
  <variable name="x_26_18" index="694" value="1.00000"/>
  <variable name="u_1" index="702" value="46.00000"/>
  <variable name="u_2" index="703" value="46.00000"/>
  <variable name="u_3" index="704" value="17.00000"/>
  <variable name="u_4" index="705" value="41.00000"/>
  <variable name="u_5" index="706" value="11.00000"/>
  <variable name="u_6" index="707" value="46.00000"/>
  <variable name="u_7" index="708" value="38.00000"/>
  <variable name="u_8" index="709" value="41.00000"/>
  <variable name="u_9" index="710" value="39.00000"/>
  <variable name="u_10" index="711" value="15.00000"/>
  <variable name="u_11" index="712" value="46.00000"/>
  <variable name="u_12" index="713" value="26.00000"/>
  <variable name="u_13" index="714" value="45.00000"/>
  <variable name="u_14" index="715" value="39.00000"/>
  <variable name="u_15" index="716" value="33.00000"/>
  <variable name="u_16" index="717" value="13.00000"/>
  <variable name="u_17" index="718" value="19.00000"/>
  <variable name="u_18" index="719" value="46.00000"/>
  <variable name="u_19" index="720" value="2.00000"/>
  <variable name="u_20" index="721" value="46.00000"/>
  <variable name="u_21" index="722" value="20.00000"/>
  <variable name="u_22" index="723" value="9.00000"/>
  <variable name="u_23" index="724" value="38.00000"/>
  <variable name="u_24" index="725" value="46.00000"/>
  <variable name="u_25" index="726" value="18.00000"/>
  <variable name="u_26" index="727" value="19.00000"/>
 </variables>
</CPLEXSolution>
